set F_UNIQ := 6 9;
set F_NODES[6] := 6 7 8;
set F_NODES[9] := 9 10 11;
#definition

# set
set V := 1 2 3 4 5 ; 	# customer set
set F := 6 9 7 8 10 11 ;#recharging & battery swapping station
set D0 :=0;
set Dsig :=12;


# param
param CV := 200;    		# ECV fixed cost(Topic Given)
param C := 200;   		# ECV max load
param Q := 77.75; 		# ECV/BSV battery level
param h := 1;     		# ECV consumption

param CB := 267;    		# BSV fixed cost(Topic Given)
param Qplun := 5;       # BSV max load(battery)
param hplun := 1;     	# BSV consumption
param W :=155.50;		# BSV battery level

param Ct := 10;    		# travel cost
param Cr := 100;    	# recharging cost
param lamda := 0.00;	# battery swap time
param Cb ;  	    # battery swap cost(BSS/BSV)
param n :=5;	   		# number of customers
param g :=10.41 ;     	# the recharging rate of ECV 



# customer demend
param m :=
0 0
1 10
2 20
3 10
4 40
5 10
6 0
9 0
7 0
8 0
10 0
11 0
12 0;

param e :=
0 0
1 0
2 0
3 76
4 0
5 0
6 0
9 0
7 0
8 0
10 0
11 0
12 0;

param l :=
0 1236
1 1136
2 1115
3 129
4 1111
5 1131
6 1236
9 1236
7 1236
8 1236
10 1236
11 1236
12 1236;

param s :=
0 0
1 90
2 90
3 90
4 90
5 90
6 0
9 0
7 0
8 0
10 0
11 0
12 0;

param d : 0 1 2 3 4 5 6 9 7 8 10 11 12 :=
0 0.0000 10.0000 30.8058 12.8062 35.0000 15.0000 0.0000 24.0208 0.0000 0.0000 24.0208 24.0208 0.0000
1 10.0000 0.0000 37.5366 20.5913 36.4005 5.0000 10.0000 25.6320 10.0000 10.0000 25.6320 25.6320 10.0000
2 30.8058 37.5366 0.0000 36.4005 62.6418 41.4005 30.8058 52.5547 30.8058 30.8058 52.5547 52.5547 30.8058
3 12.8062 20.5913 36.4005 0.0000 26.2488 25.0799 12.8062 16.6433 12.8062 12.8062 16.6433 16.6433 12.8062
4 35.0000 36.4005 62.6418 26.2488 0.0000 38.0789 35.0000 11.0454 35.0000 35.0000 11.0454 11.0454 35.0000
5 15.0000 5.0000 41.4005 25.0799 38.0789 0.0000 15.0000 27.7849 15.0000 15.0000 27.7849 27.7849 15.0000
6 0.0000 10.0000 30.8058 12.8062 35.0000 15.0000 0.0000 24.0208 0.0000 0.0000 24.0208 24.0208 0.0000
9 24.0208 25.6320 52.5547 16.6433 11.0454 27.7849 24.0208 0.0000 24.0208 24.0208 0.0000 0.0000 24.0208
7 0.0000 10.0000 30.8058 12.8062 35.0000 15.0000 0.0000 24.0208 0.0000 0.0000 24.0208 24.0208 0.0000
8 0.0000 10.0000 30.8058 12.8062 35.0000 15.0000 0.0000 24.0208 0.0000 0.0000 24.0208 24.0208 0.0000
10 24.0208 25.6320 52.5547 16.6433 11.0454 27.7849 24.0208 0.0000 24.0208 24.0208 0.0000 0.0000 24.0208
11 24.0208 25.6320 52.5547 16.6433 11.0454 27.7849 24.0208 0.0000 24.0208 24.0208 0.0000 0.0000 24.0208
12 0.0000 10.0000 30.8058 12.8062 35.0000 15.0000 0.0000 24.0208 0.0000 0.0000 24.0208 24.0208 0.0000
;

param t : 0 1 2 3 4 5 6 9 7 8 10 11 12 :=
0 0.0000 10.0000 30.8058 12.8062 35.0000 15.0000 0.0000 24.0208 0.0000 0.0000 24.0208 24.0208 0.0000
1 10.0000 0.0000 37.5366 20.5913 36.4005 5.0000 10.0000 25.6320 10.0000 10.0000 25.6320 25.6320 10.0000
2 30.8058 37.5366 0.0000 36.4005 62.6418 41.4005 30.8058 52.5547 30.8058 30.8058 52.5547 52.5547 30.8058
3 12.8062 20.5913 36.4005 0.0000 26.2488 25.0799 12.8062 16.6433 12.8062 12.8062 16.6433 16.6433 12.8062
4 35.0000 36.4005 62.6418 26.2488 0.0000 38.0789 35.0000 11.0454 35.0000 35.0000 11.0454 11.0454 35.0000
5 15.0000 5.0000 41.4005 25.0799 38.0789 0.0000 15.0000 27.7849 15.0000 15.0000 27.7849 27.7849 15.0000
6 0.0000 10.0000 30.8058 12.8062 35.0000 15.0000 0.0000 24.0208 0.0000 0.0000 24.0208 24.0208 0.0000
9 24.0208 25.6320 52.5547 16.6433 11.0454 27.7849 24.0208 0.0000 24.0208 24.0208 0.0000 0.0000 24.0208
7 0.0000 10.0000 30.8058 12.8062 35.0000 15.0000 0.0000 24.0208 0.0000 0.0000 24.0208 24.0208 0.0000
8 0.0000 10.0000 30.8058 12.8062 35.0000 15.0000 0.0000 24.0208 0.0000 0.0000 24.0208 24.0208 0.0000
10 24.0208 25.6320 52.5547 16.6433 11.0454 27.7849 24.0208 0.0000 24.0208 24.0208 0.0000 0.0000 24.0208
11 24.0208 25.6320 52.5547 16.6433 11.0454 27.7849 24.0208 0.0000 24.0208 24.0208 0.0000 0.0000 24.0208
12 0.0000 10.0000 30.8058 12.8062 35.0000 15.0000 0.0000 24.0208 0.0000 0.0000 24.0208 24.0208 0.0000
;